13672.0
1 0 1 0 0 1 0 0 1 0 0 1 0 1 1 1 0 1 0 0 1 0 0 0 1 1 0 0 0 0 
21 38 40 46 58 60 67 81 87 125 128 130 136 139 140 

3 6 20 26 90 96 97 104 112 143 148 


5 18 22 24 28 30 50 53 61 68 89 95 118 119 120 


11 12 25 43 49 75 100 109 121 124 134 141 144 


1 19 48 57 63 64 65 72 93 107 113 114 131 147 149 

2 32 47 54 82 99 123 
8 15 16 39 41 45 51 52 59 78 108 110 111 135 
37 42 127 

9 14 17 23 56 73 83 84 85 86 92 94 101 102 106 


0 4 13 34 35 55 62 70 71 77 80 88 138 142 



7 10 27 29 36 44 66 69 74 76 79 91 116 117 132 
31 33 98 103 105 115 122 126 129 133 137 145 146 




